p wcnf 109 164 165 
1 -18 -30 0 
1 39 32 0 
1 70 92 0 
1 -32 -12 0 
1 43 -94 0 
1 73 45 0 
1 -26 -5 0 
1 87 77 0 
1 -13 -95 0 
1 -70 -94 0 
1 88 -100 0 
1 -57 -20 0 
1 39 74 0 
1 -95 106 0 
1 15 -36 0 
1 -3 -106 0 
1 -57 -63 0 
1 -3 34 0 
1 -59 41 0 
1 93 101 0 
1 9 44 0 
1 96 105 0 
1 -25 -97 0 
1 101 -74 0 
1 -28 18 0 
1 69 -30 0 
1 -59 -50 0 
1 -58 -23 0 
1 32 49 0 
1 -66 -97 0 
1 -101 109 0 
1 22 84 0 
1 37 88 0 
1 -24 76 0 
1 -4 51 0 
1 -40 -51 0 
1 -47 76 0 
1 -46 16 0 
1 -25 -8 0 
1 -38 48 0 
1 -99 -55 0 
1 -98 65 0 
1 -102 -15 0 
1 58 -32 0 
1 104 -4 0 
1 -81 -47 0 
1 85 69 0 
1 -58 105 0 
1 36 -92 0 
1 -35 50 0 
1 42 80 0 
1 85 -62 0 
1 64 104 0 
1 109 -59 0 
1 -90 58 0 
1 -13 27 0 
1 37 -87 0 
1 31 58 0 
1 96 29 0 
1 -76 97 0 
1 -28 -104 0 
1 -22 -33 0 
1 49 -14 0 
1 -86 -27 0 
1 -30 49 0 
1 40 9 0 
1 91 -89 0 
1 -60 88 0 
1 32 -17 0 
1 -95 -72 0 
1 54 34 0 
1 106 57 0 
1 -39 67 0 
1 -105 -76 0 
1 73 50 0 
1 68 69 0 
1 60 86 0 
1 20 -42 0 
1 -38 -98 0 
1 64 14 0 
1 105 106 0 
1 -1 59 0 
1 79 -6 0 
1 -95 81 0 
1 79 96 0 
1 52 21 0 
1 40 -99 0 
1 24 12 0 
1 94 33 0 
1 -15 -23 0 
1 15 20 0 
1 -16 49 0 
1 64 -81 0 
1 -69 79 0 
1 78 -95 0 
1 12 34 0 
1 54 21 0 
1 36 -25 0 
1 -96 -87 0 
1 -70 1 0 
1 78 39 0 
1 -72 83 0 
1 47 -108 0 
1 5 -61 0 
1 61 -1 0 
1 20 29 0 
1 60 -81 0 
1 98 100 0 
1 23 -66 0 
1 16 -20 0 
1 -14 68 0 
1 -8 -14 0 
1 96 -70 0 
1 82 -44 0 
1 -75 -69 0 
1 21 -46 0 
1 -48 77 0 
1 -57 38 0 
1 75 46 0 
1 -69 -51 0 
1 88 96 0 
1 93 -59 0 
1 -48 13 0 
1 -109 52 0 
1 -78 -74 0 
1 -108 87 0 
1 87 -1 0 
1 -50 39 0 
1 -45 -69 0 
1 91 98 0 
1 -87 -103 0 
1 -43 7 0 
1 2 -81 0 
1 -88 53 0 
1 28 81 0 
1 33 -96 0 
1 57 -3 0 
1 -64 35 0 
1 23 -107 0 
1 32 -90 0 
1 37 -31 0 
1 89 10 0 
1 -45 50 0 
1 -14 -27 0 
1 -82 -101 0 
1 -49 44 0 
1 -16 19 0 
1 82 94 0 
1 -82 -53 0 
1 -63 -57 0 
1 -87 -13 0 
1 -56 -78 0 
1 -60 -92 0 
1 -36 -17 0 
1 60 97 0 
1 60 -85 0 
1 87 41 0 
1 48 -54 0 
1 87 96 0 
1 90 79 0 
1 -15 -54 0 
1 -61 87 0 
1 -103 18 0 
1 7 -86 0 
